[[95, 94, 93, 92, 91, 82, 83, 84, 85, 76, 75, 73, 74, 64, 65, 66, 56, 57, 58, 59, 60, 50, 49, 55, 46, 47, 38, 48, 39, 40, 41], [32, 31, 30, 29, 37, 28, 19, 21, 22, 20, 13, 11, 10, 2, 12, 3, 4, 14, 23, 15, 5, 6, 7, 8, 9, 18, 17, 16, 25, 24], [26, 27, 35, 36, 44, 34, 33, 42, 43, 45, 51, 52, 53, 54, 63, 62, 61, 71, 72, 81, 80, 70, 69, 67, 68, 78, 77, 79, 88, 89, 90, 99, 98, 97, 96, 87, 86]]